c CNF file corresponding to a (partial) station packing problem.
p cnf 2076 184
1 2 3 4 5 6 7 8 9 10 11 12 13 14 0
-1 -2 0
-1 -3 0
-1 -4 0
-1 -5 0
-1 -6 0
-1 -7 0
-1 -8 0
-1 -9 0
-1 -10 0
-1 -11 0
-1 -12 0
-1 -13 0
-1 -14 0
-2 -3 0
-2 -4 0
-2 -5 0
-2 -6 0
-2 -7 0
-2 -8 0
-2 -9 0
-2 -10 0
-2 -11 0
-2 -12 0
-2 -13 0
-2 -14 0
-3 -4 0
-3 -5 0
-3 -6 0
-3 -7 0
-3 -8 0
-3 -9 0
-3 -10 0
-3 -11 0
-3 -12 0
-3 -13 0
-3 -14 0
-4 -5 0
-4 -6 0
-4 -7 0
-4 -8 0
-4 -9 0
-4 -10 0
-4 -11 0
-4 -12 0
-4 -13 0
-4 -14 0
-5 -6 0
-5 -7 0
-5 -8 0
-5 -9 0
-5 -10 0
-5 -11 0
-5 -12 0
-5 -13 0
-5 -14 0
-6 -7 0
-6 -8 0
-6 -9 0
-6 -10 0
-6 -11 0
-6 -12 0
-6 -13 0
-6 -14 0
-7 -8 0
-7 -9 0
-7 -10 0
-7 -11 0
-7 -12 0
-7 -13 0
-7 -14 0
-8 -9 0
-8 -10 0
-8 -11 0
-8 -12 0
-8 -13 0
-8 -14 0
-9 -10 0
-9 -11 0
-9 -12 0
-9 -13 0
-9 -14 0
-10 -11 0
-10 -12 0
-10 -13 0
-10 -14 0
-11 -12 0
-11 -13 0
-11 -14 0
-12 -13 0
-12 -14 0
-13 -14 0
2063 2064 2065 2066 2067 2068 2069 2070 2071 2072 2073 2074 2075 2076 0
-2063 -2064 0
-2063 -2065 0
-2063 -2066 0
-2063 -2067 0
-2063 -2068 0
-2063 -2069 0
-2063 -2070 0
-2063 -2071 0
-2063 -2072 0
-2063 -2073 0
-2063 -2074 0
-2063 -2075 0
-2063 -2076 0
-2064 -2065 0
-2064 -2066 0
-2064 -2067 0
-2064 -2068 0
-2064 -2069 0
-2064 -2070 0
-2064 -2071 0
-2064 -2072 0
-2064 -2073 0
-2064 -2074 0
-2064 -2075 0
-2064 -2076 0
-2065 -2066 0
-2065 -2067 0
-2065 -2068 0
-2065 -2069 0
-2065 -2070 0
-2065 -2071 0
-2065 -2072 0
-2065 -2073 0
-2065 -2074 0
-2065 -2075 0
-2065 -2076 0
-2066 -2067 0
-2066 -2068 0
-2066 -2069 0
-2066 -2070 0
-2066 -2071 0
-2066 -2072 0
-2066 -2073 0
-2066 -2074 0
-2066 -2075 0
-2066 -2076 0
-2067 -2068 0
-2067 -2069 0
-2067 -2070 0
-2067 -2071 0
-2067 -2072 0
-2067 -2073 0
-2067 -2074 0
-2067 -2075 0
-2067 -2076 0
-2068 -2069 0
-2068 -2070 0
-2068 -2071 0
-2068 -2072 0
-2068 -2073 0
-2068 -2074 0
-2068 -2075 0
-2068 -2076 0
-2069 -2070 0
-2069 -2071 0
-2069 -2072 0
-2069 -2073 0
-2069 -2074 0
-2069 -2075 0
-2069 -2076 0
-2070 -2071 0
-2070 -2072 0
-2070 -2073 0
-2070 -2074 0
-2070 -2075 0
-2070 -2076 0
-2071 -2072 0
-2071 -2073 0
-2071 -2074 0
-2071 -2075 0
-2071 -2076 0
-2072 -2073 0
-2072 -2074 0
-2072 -2075 0
-2072 -2076 0
-2073 -2074 0
-2073 -2075 0
-2073 -2076 0
-2074 -2075 0
-2074 -2076 0
-2075 -2076 0
